NAME : pr439Preorder.24105.tour
COMMENT : Length = 24105
COMMENT : Found by LKH [Keld Helsgaun] Thu Apr 23 00:23:33 2020
TYPE : TOUR
DIMENSION : 439
TOUR_SECTION
1
3
2
52
51
53
83
84
85
149
186
226
227
228
283
439
435
436
437
438
434
403
408
409
411
410
425
426
424
430
432
433
427
422
423
412
413
407
406
399
392
391
381
375
374
382
394
393
398
396
397
395
384
383
372
371
373
341
342
343
344
284
229
282
281
230
187
188
189
225
231
232
280
285
340
287
286
288
289
290
291
292
293
359
358
357
356
355
354
353
352
351
350
349
348
346
347
345
376
377
379
380
390
389
414
421
420
419
415
416
431
429
428
418
417
405
404
402
400
401
388
387
386
385
378
367
368
369
365
366
364
363
362
361
370
360
339
338
337
336
335
334
333
300
299
298
297
296
295
294
279
278
277
276
275
274
273
301
272
271
270
269
268
267
266
265
264
263
262
261
260
259
258
256
257
314
313
312
311
310
309
308
307
306
305
304
302
303
330
332
331
329
328
327
326
325
324
323
322
321
320
319
318
317
315
316
254
255
252
253
251
209
208
207
206
205
203
202
204
174
173
172
171
170
168
169
166
167
165
164
163
162
134
135
136
137
124
123
125
126
127
129
130
132
133
131
128
99
98
97
96
95
100
94
93
92
102
103
115
117
120
101
122
121
119
118
116
114
113
143
150
151
153
152
142
141
140
139
138
158
157
156
155
154
182
181
180
179
178
177
159
160
161
175
176
201
200
199
198
197
196
195
194
193
183
192
184
191
222
221
220
219
218
217
216
215
214
213
212
211
210
250
249
248
247
246
245
244
243
242
241
240
239
238
237
236
235
234
233
223
224
190
185
145
148
147
144
146
112
110
111
109
108
107
106
105
104
91
90
89
88
72
71
70
69
68
19
18
20
21
22
67
66
65
24
23
25
64
74
73
63
29
27
26
28
30
31
32
62
75
76
61
60
59
77
87
86
78
58
57
79
80
81
82
56
55
54
50
48
47
49
46
45
44
42
43
41
40
39
38
37
36
35
34
33
17
16
15
14
13
12
11
10
9
8
7
6
5
4
-1
EOF
